NAME : plot/tour/tour_HK_poids-35804416_it-100_useprim-true_tokyo-skytree-aerial.tour
COMMENT : LENGHT = 3.5804416e7
TYPE : TOUR
DIMENSION : 601
TOUR_SECTION
1
2
3
5
6
8
9
10
11
12
13
14
15
16
17
18
19
20
21
22
23
24
28
29
30
31
32
33
34
35
36
38
39
40
41
42
43
44
45
46
47
48
49
51
52
54
55
57
58
59
60
61
62
63
64
65
66
67
68
69
70
71
73
74
75
76
77
80
81
82
83
84
85
86
87
88
89
91
92
93
94
95
96
97
98
99
100
101
102
103
104
105
106
107
108
109
110
111
112
113
116
117
118
119
120
121
122
123
124
126
128
129
130
131
132
134
135
136
137
138
139
140
141
143
144
145
147
148
149
151
152
153
154
155
156
157
159
160
161
162
163
164
165
167
168
169
170
171
172
173
176
177
178
179
180
181
182
183
184
185
186
187
189
190
191
192
193
194
195
196
197
198
199
200
201
202
204
205
206
209
210
211
212
213
214
215
216
217
218
219
220
221
222
223
224
225
226
227
229
230
231
232
233
234
235
236
237
238
239
240
241
242
243
244
245
246
247
248
249
250
252
253
254
255
256
257
258
259
260
261
262
263
264
265
266
267
268
269
270
271
274
275
276
277
278
279
280
281
282
283
285
286
287
288
289
290
291
293
294
295
296
297
298
300
301
303
304
307
308
309
310
311
312
313
314
315
316
318
319
320
321
322
323
324
325
327
328
329
330
331
332
333
334
335
337
339
340
341
342
343
344
345
346
347
348
350
351
352
353
354
355
356
357
358
359
360
362
364
367
368
369
370
371
372
373
374
375
376
377
379
381
382
383
384
385
386
387
388
389
390
391
392
393
394
395
396
397
398
399
400
402
403
405
406
407
408
409
411
415
416
417
418
419
420
421
422
423
424
425
426
427
428
431
432
433
435
436
437
438
439
440
441
442
443
444
445
446
447
448
449
450
451
452
453
455
457
458
459
460
461
462
463
465
466
467
468
469
470
471
472
474
475
476
477
479
480
481
482
483
484
485
486
488
489
490
491
492
493
494
495
496
498
499
500
501
503
505
506
507
508
509
510
511
512
513
514
515
516
517
518
520
521
522
524
525
526
527
528
529
530
531
532
533
534
535
536
538
539
540
541
542
543
544
545
546
547
548
549
550
551
553
554
555
556
557
559
561
562
563
564
565
566
567
568
569
570
571
572
573
574
575
576
577
579
580
581
582
583
584
585
586
588
589
590
591
592
593
594
595
596
597
598
599
600
601
4
7
25
26
27
37
50
53
56
72
78
79
90
114
115
125
127
133
142
146
150
158
166
174
175
188
203
207
208
228
251
272
273
284
292
299
302
305
306
317
326
336
338
349
361
363
365
366
378
380
404
410
412
413
414
429
430
434
454
456
464
473
478
487
497
502
504
519
523
537
552
558
560
578
587
401
-1
EOF
